N = 240;
M = 596;
Edge_Start = [1, 1, 2, 3, 3, 5, 5, 6, 7, 7, 9, 10, 11, 11, 12, 13, 13, 14, 15, 16, 17, 17, 18, 19, 19, 20, 21, 22, 23, 23, 25, 25, 26, 27, 27, 28, 29, 29, 30, 31, 31, 32, 33, 33, 34, 35, 35, 36, 37, 37, 38, 39, 41, 41, 43, 44, 44, 45, 46, 46, 47, 48, 48, 49, 50, 51, 52, 52, 54, 54, 55, 56, 56, 57, 58, 60, 60, 61, 62, 63, 64, 64, 66, 67, 67, 68, 69, 69, 70, 71, 71, 73, 73, 74, 75, 75, 76, 77, 77, 78, 79, 80, 81, 82, 83, 83, 84, 85, 85, 86, 87, 88, 88, 89, 90, 91, 92, 92, 93, 94, 94, 95, 96, 97, 98, 98, 99, 100, 100, 102, 102, 103, 104, 104, 105, 106, 106, 107, 108, 108, 110, 111, 111, 113, 113, 114, 115, 115, 116, 117, 117, 118, 119, 119, 120, 121, 121, 122, 123, 123, 125, 125, 126, 127, 127, 128, 129, 130, 132, 133, 134, 134, 135, 136, 136, 137, 138, 138, 139, 140, 141, 142, 142, 143, 144, 144, 145, 146, 146, 147, 148, 148, 150, 151, 152, 152, 154, 155, 155, 156, 157, 157, 158, 159, 159, 160, 161, 161, 162, 163, 163, 164, 165, 165, 166, 167, 168, 169, 169, 170, 171, 171, 172, 173, 173, 174, 175, 176, 176, 177, 178, 178, 179, 180, 180, 181, 182, 182, 184, 184, 185, 186, 186, 187, 188, 188, 189, 190, 192, 193, 194, 194, 195, 196, 196, 198, 199, 199, 200, 201, 201, 202, 203, 203, 204, 205, 205, 207, 207, 208, 209, 209, 210, 211, 211, 213, 214, 215, 216, 217, 218, 219, 221, 222, 224, 225, 226, 228, 229, 230, 231, 232, 233, 234, 235, 236, 237, 239, 2, 22, 3, 4, 24, 6, 26, 7, 8, 28, 30, 11, 12, 32, 13, 14, 34, 15, 36, 17, 18, 38, 19, 20, 40, 21, 42, 23, 24, 45, 26, 47, 27, 28, 49, 29, 30, 51, 31, 32, 53, 33, 34, 55, 35, 36, 57, 37, 38, 59, 39, 61, 42, 63, 65, 45, 66, 46, 47, 68, 48, 49, 70, 50, 51, 52, 53, 74, 55, 76, 56, 57, 78, 58, 80, 61, 82, 62, 84, 64, 65, 86, 67, 68, 89, 69, 70, 91, 71, 72, 93, 74, 95, 75, 76, 97, 77, 78, 99, 79, 80, 81, 103, 83, 84, 105, 85, 86, 107, 87, 109, 89, 110, 90, 91, 92, 93, 114, 94, 95, 116, 96, 118, 98, 99, 120, 100, 101, 122, 103, 124, 104, 105, 126, 106, 107, 128, 108, 109, 130, 111, 112, 133, 114, 135, 115, 116, 137, 117, 118, 139, 119, 120, 141, 121, 122, 143, 123, 124, 145, 126, 147, 127, 128, 149, 129, 130, 131, 133, 134, 135, 156, 136, 137, 158, 138, 139, 160, 140, 162, 142, 143, 164, 144, 145, 166, 146, 147, 168, 148, 149, 170, 151, 152, 153, 174, 155, 156, 177, 157, 158, 179, 159, 160, 181, 161, 162, 183, 163, 164, 185, 165, 166, 187, 167, 168, 169, 170, 191, 171, 172, 193, 173, 174, 195, 175, 197, 177, 198, 178, 179, 200, 180, 181, 202, 182, 183, 204, 185, 206, 186, 187, 208, 188, 189, 210, 190, 212, 214, 194, 195, 216, 196, 197, 218, 199, 200, 220, 201, 202, 222, 203, 204, 224, 205, 206, 226, 208, 228, 209, 210, 230, 211, 212, 232, 234, 215, 236, 217, 238, 219, 240, 222, 223, 225, 226, 227, 229, 230, 231, 232, 233, 234, 235, 236, 237, 238, 240];
Edge_End = [2, 22, 3, 4, 24, 6, 26, 7, 8, 28, 30, 11, 12, 32, 13, 14, 34, 15, 36, 17, 18, 38, 19, 20, 40, 21, 42, 23, 24, 45, 26, 47, 27, 28, 49, 29, 30, 51, 31, 32, 53, 33, 34, 55, 35, 36, 57, 37, 38, 59, 39, 61, 42, 63, 65, 45, 66, 46, 47, 68, 48, 49, 70, 50, 51, 52, 53, 74, 55, 76, 56, 57, 78, 58, 80, 61, 82, 62, 84, 64, 65, 86, 67, 68, 89, 69, 70, 91, 71, 72, 93, 74, 95, 75, 76, 97, 77, 78, 99, 79, 80, 81, 103, 83, 84, 105, 85, 86, 107, 87, 109, 89, 110, 90, 91, 92, 93, 114, 94, 95, 116, 96, 118, 98, 99, 120, 100, 101, 122, 103, 124, 104, 105, 126, 106, 107, 128, 108, 109, 130, 111, 112, 133, 114, 135, 115, 116, 137, 117, 118, 139, 119, 120, 141, 121, 122, 143, 123, 124, 145, 126, 147, 127, 128, 149, 129, 130, 131, 133, 134, 135, 156, 136, 137, 158, 138, 139, 160, 140, 162, 142, 143, 164, 144, 145, 166, 146, 147, 168, 148, 149, 170, 151, 152, 153, 174, 155, 156, 177, 157, 158, 179, 159, 160, 181, 161, 162, 183, 163, 164, 185, 165, 166, 187, 167, 168, 169, 170, 191, 171, 172, 193, 173, 174, 195, 175, 197, 177, 198, 178, 179, 200, 180, 181, 202, 182, 183, 204, 185, 206, 186, 187, 208, 188, 189, 210, 190, 212, 214, 194, 195, 216, 196, 197, 218, 199, 200, 220, 201, 202, 222, 203, 204, 224, 205, 206, 226, 208, 228, 209, 210, 230, 211, 212, 232, 234, 215, 236, 217, 238, 219, 240, 222, 223, 225, 226, 227, 229, 230, 231, 232, 233, 234, 235, 236, 237, 238, 240, 1, 1, 2, 3, 3, 5, 5, 6, 7, 7, 9, 10, 11, 11, 12, 13, 13, 14, 15, 16, 17, 17, 18, 19, 19, 20, 21, 22, 23, 23, 25, 25, 26, 27, 27, 28, 29, 29, 30, 31, 31, 32, 33, 33, 34, 35, 35, 36, 37, 37, 38, 39, 41, 41, 43, 44, 44, 45, 46, 46, 47, 48, 48, 49, 50, 51, 52, 52, 54, 54, 55, 56, 56, 57, 58, 60, 60, 61, 62, 63, 64, 64, 66, 67, 67, 68, 69, 69, 70, 71, 71, 73, 73, 74, 75, 75, 76, 77, 77, 78, 79, 80, 81, 82, 83, 83, 84, 85, 85, 86, 87, 88, 88, 89, 90, 91, 92, 92, 93, 94, 94, 95, 96, 97, 98, 98, 99, 100, 100, 102, 102, 103, 104, 104, 105, 106, 106, 107, 108, 108, 110, 111, 111, 113, 113, 114, 115, 115, 116, 117, 117, 118, 119, 119, 120, 121, 121, 122, 123, 123, 125, 125, 126, 127, 127, 128, 129, 130, 132, 133, 134, 134, 135, 136, 136, 137, 138, 138, 139, 140, 141, 142, 142, 143, 144, 144, 145, 146, 146, 147, 148, 148, 150, 151, 152, 152, 154, 155, 155, 156, 157, 157, 158, 159, 159, 160, 161, 161, 162, 163, 163, 164, 165, 165, 166, 167, 168, 169, 169, 170, 171, 171, 172, 173, 173, 174, 175, 176, 176, 177, 178, 178, 179, 180, 180, 181, 182, 182, 184, 184, 185, 186, 186, 187, 188, 188, 189, 190, 192, 193, 194, 194, 195, 196, 196, 198, 199, 199, 200, 201, 201, 202, 203, 203, 204, 205, 205, 207, 207, 208, 209, 209, 210, 211, 211, 213, 214, 215, 216, 217, 218, 219, 221, 222, 224, 225, 226, 228, 229, 230, 231, 232, 233, 234, 235, 236, 237, 239];
L = [1, 1, 1, 1, 1, 1, 1, 1, 1, 1, 1, 1, 1, 1, 1, 1, 1, 1, 1, 1, 1, 1, 1, 1, 1, 1, 1, 1, 1, 1, 1, 1, 1, 1, 1, 1, 1, 1, 1, 1, 1, 1, 1, 1, 1, 1, 1, 1, 1, 1, 1, 1, 1, 1, 1, 1, 1, 1, 1, 1, 1, 1, 1, 1, 1, 1, 1, 1, 1, 1, 1, 1, 1, 1, 1, 1, 1, 1, 1, 1, 1, 1, 1, 1, 1, 1, 1, 1, 1, 1, 1, 1, 1, 1, 1, 1, 1, 1, 1, 1, 1, 1, 1, 1, 1, 1, 1, 1, 1, 1, 1, 1, 1, 1, 1, 1, 1, 1, 1, 1, 1, 1, 1, 1, 1, 1, 1, 1, 1, 1, 1, 1, 1, 1, 1, 1, 1, 1, 1, 1, 1, 1, 1, 1, 1, 1, 1, 1, 1, 1, 1, 1, 1, 1, 1, 1, 1, 1, 1, 1, 1, 1, 1, 1, 1, 1, 1, 1, 1, 1, 1, 1, 1, 1, 1, 1, 1, 1, 1, 1, 1, 1, 1, 1, 1, 1, 1, 1, 1, 1, 1, 1, 1, 1, 1, 1, 1, 1, 1, 1, 1, 1, 1, 1, 1, 1, 1, 1, 1, 1, 1, 1, 1, 1, 1, 1, 1, 1, 1, 1, 1, 1, 1, 1, 1, 1, 1, 1, 1, 1, 1, 1, 1, 1, 1, 1, 1, 1, 1, 1, 1, 1, 1, 1, 1, 1, 1, 1, 1, 1, 1, 1, 1, 1, 1, 1, 1, 1, 1, 1, 1, 1, 1, 1, 1, 1, 1, 1, 1, 1, 1, 1, 1, 1, 1, 1, 1, 1, 1, 1, 1, 1, 1, 1, 1, 1, 1, 1, 1, 1, 1, 1, 1, 1, 1, 1, 1, 1, 1, 1, 1, 1, 1, 1, 1, 1, 1, 1, 1, 1, 1, 1, 1, 1, 1, 1, 1, 1, 1, 1, 1, 1, 1, 1, 1, 1, 1, 1, 1, 1, 1, 1, 1, 1, 1, 1, 1, 1, 1, 1, 1, 1, 1, 1, 1, 1, 1, 1, 1, 1, 1, 1, 1, 1, 1, 1, 1, 1, 1, 1, 1, 1, 1, 1, 1, 1, 1, 1, 1, 1, 1, 1, 1, 1, 1, 1, 1, 1, 1, 1, 1, 1, 1, 1, 1, 1, 1, 1, 1, 1, 1, 1, 1, 1, 1, 1, 1, 1, 1, 1, 1, 1, 1, 1, 1, 1, 1, 1, 1, 1, 1, 1, 1, 1, 1, 1, 1, 1, 1, 1, 1, 1, 1, 1, 1, 1, 1, 1, 1, 1, 1, 1, 1, 1, 1, 1, 1, 1, 1, 1, 1, 1, 1, 1, 1, 1, 1, 1, 1, 1, 1, 1, 1, 1, 1, 1, 1, 1, 1, 1, 1, 1, 1, 1, 1, 1, 1, 1, 1, 1, 1, 1, 1, 1, 1, 1, 1, 1, 1, 1, 1, 1, 1, 1, 1, 1, 1, 1, 1, 1, 1, 1, 1, 1, 1, 1, 1, 1, 1, 1, 1, 1, 1, 1, 1, 1, 1, 1, 1, 1, 1, 1, 1, 1, 1, 1, 1, 1, 1, 1, 1, 1, 1, 1, 1, 1, 1, 1, 1, 1, 1, 1, 1, 1, 1, 1, 1, 1, 1, 1, 1, 1, 1, 1, 1, 1, 1, 1, 1, 1, 1, 1, 1, 1, 1, 1, 1, 1, 1, 1, 1, 1, 1, 1, 1, 1, 1, 1, 1, 1, 1, 1, 1, 1, 1, 1, 1, 1, 1, 1, 1, 1, 1, 1, 1, 1, 1, 1, 1, 1, 1, 1, 1, 1, 1, 1];
T = [1, 1, 1, 1, 1, 1, 1, 1, 1, 1, 1, 1, 1, 1, 1, 1, 1, 1, 1, 1, 1, 1, 1, 1, 1, 1, 1, 1, 1, 1, 1, 1, 1, 1, 1, 1, 1, 1, 1, 1, 1, 1, 1, 1, 1, 1, 1, 1, 1, 1, 1, 1, 1, 1, 1, 1, 1, 1, 1, 1, 1, 1, 1, 1, 1, 1, 1, 1, 1, 1, 1, 1, 1, 1, 1, 1, 1, 1, 1, 1, 1, 1, 1, 1, 1, 1, 1, 1, 1, 1, 1, 1, 1, 1, 1, 1, 1, 1, 1, 1, 1, 1, 1, 1, 1, 1, 1, 1, 1, 1, 1, 1, 1, 1, 1, 1, 1, 1, 1, 1, 1, 1, 1, 1, 1, 1, 1, 1, 1, 1, 1, 1, 1, 1, 1, 1, 1, 1, 1, 1, 1, 1, 1, 1, 1, 1, 1, 1, 1, 1, 1, 1, 1, 1, 1, 1, 1, 1, 1, 1, 1, 1, 1, 1, 1, 1, 1, 1, 1, 1, 1, 1, 1, 1, 1, 1, 1, 1, 1, 1, 1, 1, 1, 1, 1, 1, 1, 1, 1, 1, 1, 1, 1, 1, 1, 1, 1, 1, 1, 1, 1, 1, 1, 1, 1, 1, 1, 1, 1, 1, 1, 1, 1, 1, 1, 1, 1, 1, 1, 1, 1, 1, 1, 1, 1, 1, 1, 1, 1, 1, 1, 1, 1, 1, 1, 1, 1, 1, 1, 1, 1, 1, 1, 1, 1, 1, 1, 1, 1, 1, 1, 1, 1, 1, 1, 1, 1, 1, 1, 1, 1, 1, 1, 1, 1, 1, 1, 1, 1, 1, 1, 1, 1, 1, 1, 1, 1, 1, 1, 1, 1, 1, 1, 1, 1, 1, 1, 1, 1, 1, 1, 1, 1, 1, 1, 1, 1, 1, 1, 1, 1, 1, 1, 1, 1, 1, 1, 1, 1, 1, 1, 1, 1, 1, 1, 1, 1, 1, 1, 1, 1, 1, 1, 1, 1, 1, 1, 1, 1, 1, 1, 1, 1, 1, 1, 1, 1, 1, 1, 1, 1, 1, 1, 1, 1, 1, 1, 1, 1, 1, 1, 1, 1, 1, 1, 1, 1, 1, 1, 1, 1, 1, 1, 1, 1, 1, 1, 1, 1, 1, 1, 1, 1, 1, 1, 1, 1, 1, 1, 1, 1, 1, 1, 1, 1, 1, 1, 1, 1, 1, 1, 1, 1, 1, 1, 1, 1, 1, 1, 1, 1, 1, 1, 1, 1, 1, 1, 1, 1, 1, 1, 1, 1, 1, 1, 1, 1, 1, 1, 1, 1, 1, 1, 1, 1, 1, 1, 1, 1, 1, 1, 1, 1, 1, 1, 1, 1, 1, 1, 1, 1, 1, 1, 1, 1, 1, 1, 1, 1, 1, 1, 1, 1, 1, 1, 1, 1, 1, 1, 1, 1, 1, 1, 1, 1, 1, 1, 1, 1, 1, 1, 1, 1, 1, 1, 1, 1, 1, 1, 1, 1, 1, 1, 1, 1, 1, 1, 1, 1, 1, 1, 1, 1, 1, 1, 1, 1, 1, 1, 1, 1, 1, 1, 1, 1, 1, 1, 1, 1, 1, 1, 1, 1, 1, 1, 1, 1, 1, 1, 1, 1, 1, 1, 1, 1, 1, 1, 1, 1, 1, 1, 1, 1, 1, 1, 1, 1, 1, 1, 1, 1, 1, 1, 1, 1, 1, 1, 1, 1, 1, 1, 1, 1, 1, 1, 1, 1, 1, 1, 1, 1, 1, 1, 1, 1, 1, 1, 1, 1, 1, 1, 1, 1, 1, 1, 1, 1, 1, 1, 1, 1, 1, 1, 1, 1, 1, 1, 1, 1, 1, 1, 1, 1, 1, 1, 1];
Lower_Bound = [0, 1, 2, 3, 8, 9, 10, 11, 12, 15, 14, 15, 16, 17, 18, 21, 20, 21, 22, 23, 24, 1, 2, 3, 6, 7, 8, 9, 10, 11, 12, 13, 14, 15, 16, 17, 18, 19, 20, 23, 26, 25, 28, 4, 3, 4, 5, 6, 7, 8, 9, 10, 11, 14, 15, 16, 17, 18, 19, 22, 21, 22, 27, 26, 27, 5, 6, 5, 6, 7, 8, 9, 12, 11, 12, 13, 14, 15, 16, 17, 18, 23, 22, 23, 24, 25, 26, 8, 7, 8, 7, 8, 9, 10, 11, 12, 13, 14, 15, 16, 17, 20, 19, 20, 21, 22, 23, 24, 25, 9, 10, 11, 10, 9, 10, 11, 12, 13, 14, 15, 16, 17, 18, 19, 22, 21, 22, 23, 24, 25, 26, 12, 11, 12, 11, 12, 11, 12, 13, 14, 15, 16, 17, 18, 19, 20, 21, 22, 23, 30, 29, 28, 29, 15, 14, 13, 14, 13, 14, 13, 14, 15, 16, 17, 18, 19, 20, 21, 22, 23, 24, 25, 26, 27, 28, 16, 15, 16, 15, 16, 15, 16, 15, 18, 17, 18, 19, 20, 21, 22, 23, 30, 25, 26, 27, 28, 29, 17, 18, 17, 18, 17, 18, 17, 18, 19, 20, 19, 20, 21, 22, 23, 26, 29, 28, 27, 28, 29, 30, 19, 20, 19, 20, 19, 20, 19, 20, 21, 22, 21, 22, 23, 24, 25, 26, 27, 28, 29, 32, 31];
Upper_Bound = [0, 1, 2, 3, 8, 9, 10, 11, 12, 15, 14, 15, 16, 17, 18, 21, 20, 21, 22, 23, 24, 1, 2, 3, 6, 7, 8, 9, 10, 11, 12, 13, 14, 15, 16, 17, 18, 19, 20, 23, 26, 25, 28, 4, 3, 4, 5, 6, 7, 8, 9, 10, 11, 14, 15, 16, 17, 18, 19, 22, 21, 22, 27, 26, 27, 5, 6, 5, 6, 7, 8, 9, 12, 11, 12, 13, 14, 15, 16, 17, 18, 23, 22, 23, 24, 25, 26, 8, 7, 8, 7, 8, 9, 10, 11, 12, 13, 14, 15, 16, 17, 20, 19, 20, 21, 22, 23, 24, 25, 9, 10, 11, 10, 9, 10, 11, 12, 13, 14, 15, 16, 17, 18, 19, 22, 21, 22, 23, 24, 25, 26, 12, 11, 12, 11, 12, 11, 12, 13, 14, 15, 16, 17, 18, 19, 20, 21, 22, 23, 30, 29, 28, 29, 15, 14, 13, 14, 13, 14, 13, 14, 15, 16, 17, 18, 19, 20, 21, 22, 23, 24, 25, 26, 27, 28, 16, 15, 16, 15, 16, 15, 16, 15, 18, 17, 18, 19, 20, 21, 22, 23, 30, 25, 26, 27, 28, 29, 17, 18, 17, 18, 17, 18, 17, 18, 19, 20, 19, 20, 21, 22, 23, 26, 29, 28, 27, 28, 29, 30, 19, 20, 19, 20, 19, 20, 19, 20, 21, 22, 21, 22, 23, 24, 25, 26, 27, 28, 29, 32, 31];
Start = 1;
End = 240;
Time = 31;
